objective value:                                   -6
t_n_15                                              1 	(obj:-1)
t_n_270                                             1 	(obj:-1)
t_n_417                                             1 	(obj:-1)
t_n_1495                                            1 	(obj:-1)
t_n_1522                                            1 	(obj:-1)
t_n_1815                                            1 	(obj:-1)
